55 23 60 3 98 11 29 92 14 82 68 17 50 56 51 11 50 15 47 4 75 82 12 65 91 27 53 65 66 98 39 99 75 87 59 25 7 68 99 72 56 37 21 21 25 35 14 89 33 69 57 56 68 69 73 26 90 33 33 19 8 93 9 78 27 15 44 96 46 10 71 67 19 68 62 13 66 66 30 9 52 64 62 31 13 68 97 14 2 55 70 80 24 69 13 12 38 14 46 62 